Total weight: 1065.6754422264344
Route 1: 0 18 82 48 46 45 5 92 97 42 15 43 38 44 14 57 2 73 74 72 4 54 26 0 
Route 2: 0 52 31 1 50 33 81 71 20 32 90 63 64 11 62 30 51 3 76 28 6 99 60 83 84 61 85 91 16 86 17 96 94 95 59 93 98 37 100 87 13 58 0 
Route 3: 0 8 36 47 19 7 88 69 22 41 89 49 10 66 65 35 34 79 68 77 80 24 29 78 9 70 0 
Route 4: 0 27 12 55 25 39 67 23 56 75 21 40 53 0 
